p tw 189 353
1 102
1 103
1 133
1 134
2 59
2 60
2 142
2 143
2 154
2 155
3 93
3 94
3 155
3 156
4 60
4 61
4 156
4 157
5 84
5 166
5 167
6 70
6 71
6 140
6 141
7 88
7 89
7 182
7 183
8 58
8 59
8 153
8 154
9 103
9 104
9 132
9 133
10 105
10 106
10 172
10 173
11 13
11 99
11 100
11 143
12 107
12 108
12 175
12 176
13 109
13 110
13 143
14 118
14 119
14 139
14 140
14 152
14 153
15 84
15 85
15 174
15 175
16 97
16 98
16 138
16 139
17 83
17 159
17 160
18 73
18 74
18 134
18 135
18 185
18 186
19 114
19 115
19 186
19 187
20 130
20 187
20 188
21 90
21 91
21 135
21 136
21 147
21 148
22 91
22 92
22 149
22 150
23 79
23 80
23 136
23 137
24 111
24 112
24 181
24 182
25 64
25 65
25 161
25 162
26 123
26 124
26 162
26 163
27 82
27 83
27 151
27 152
28 75
28 76
28 189
29 80
29 81
29 150
29 151
30 108
30 109
30 177
30 178
31 56
31 57
31 146
31 147
32 66
32 67
32 170
32 171
33 67
33 68
33 171
33 172
34 55
34 56
34 145
34 146
35 69
35 70
35 173
35 174
36 89
36 188
36 189
37 101
37 102
37 131
37 132
37 168
37 169
38 71
38 72
38 178
38 179
39 72
39 73
39 183
39 184
40 124
40 125
40 164
40 165
41 95
41 96
41 157
41 158
42 62
42 63
42 158
42 159
43 90
43 144
43 145
44 125
44 126
44 165
44 166
45 120
45 121
45 160
45 161
46 127
46 128
46 169
46 170
47 87
47 88
47 131
47 180
47 181
48 77
48 78
48 148
48 149
49 116
49 117
49 137
49 138
50 122
50 123
50 163
50 164
51 126
51 127
51 167
51 168
52 112
52 113
52 184
52 185
53 129
53 130
53 179
53 180
54 86
54 87
54 141
54 142
54 176
54 177
55 56
55 144
56 57
57 58
58 59
59 60
60 61
61 62
62 63
63 64
64 65
65 66
66 67
67 68
68 69
69 70
70 71
71 72
72 73
73 74
74 75
75 76
76 77
77 78
78 79
79 80
80 81
81 82
82 83
84 85
85 86
86 87
87 88
88 89
90 91
91 92
92 93
93 94
94 95
95 96
96 97
97 98
98 99
99 100
100 101
101 102
102 103
103 104
104 105
105 106
106 107
107 108
108 109
109 110
110 111
111 112
112 113
113 114
114 115
115 116
116 117
117 118
118 119
119 120
120 121
121 122
122 123
123 124
124 125
125 126
126 127
127 128
128 129
129 130
131 132
132 133
133 134
134 135
135 136
136 137
137 138
138 139
139 140
140 141
141 142
142 143
144 145
145 146
146 147
147 148
148 149
149 150
150 151
151 152
152 153
153 154
154 155
155 156
156 157
157 158
158 159
159 160
160 161
161 162
162 163
163 164
164 165
165 166
166 167
167 168
168 169
169 170
170 171
171 172
172 173
173 174
174 175
175 176
176 177
177 178
178 179
179 180
180 181
181 182
182 183
183 184
184 185
185 186
186 187
187 188
188 189
